100 8
289 745
431 115
771 244
185 372
422 720
251 100
196 764
834 737
864 262
553 260
796 865
695 406
927 486
583 108
703 818
212 852
359 589
883 590
284 725
813 812
338 808
280 821
551 132
850 761
183 241
541 723
852 492
178 261
757 120
262 228
515 181
386 758
914 850
679 115
566 353
514 215
211 95
675 231
672 755
228 269
643 749
636 341
814 852
441 633
798 611
429 227
270 260
358 234
331 368
312 820
535 165
659 177
400 638
523 732
197 214
691 819
869 578
258 873
595 744
300 816
851 530
248 632
281 909
469 169
607 743
649 357
226 354
480 205
279 227
872 428
232 230
211 861
354 831
209 878
175 135
587 354
900 471
484 262
503 137
186 244
234 365
683 390
136 794
317 257
182 944
527 254
528 196
284 663
747 130
267 752
253 126
609 868
319 226
250 226
535 476
587 367
691 272
668 193
854 553
599 381
